ilp_joint/output/conservation_ilp.lp
Maximize
  0.00852284322667936 Z_99_0_0 + 0.0100988205494 Z_99_0_1
   + 0.7006400352291535 Z_99_0_2 + 0.0140410990130445 Z_99_0_3
   + 0.0787798856697171 Z_99_7_0 + 0.0381720918415988 Z_99_7_1
   + 0.0900254875253431 Z_99_7_2 + 0.0691957914049267 Z_99_7_3
   + 0.6556607079090229 Z_99_3_0 + 0.0385819348261125 Z_99_3_1
   + 0.0155307627081502 Z_99_3_2 + 0.050511970212398 Z_99_3_3
   + 0.1068970302398408 Z_99_10_0 + 0.1137800235473119 Z_99_10_1
   + 0.0171497742872944 Z_99_10_2 + 0.1108641537117704 Z_99_10_3
   + 0.0131009099937534 Z_99_4_0 + 0.0185392 Z_99_4_1
   + 0.1622099877516795 Z_99_4_2 + 0.034302112277784 Z_99_4_3
   + 0.00875463481021399 Z_99_9_0 + 0.056713015986828 Z_99_9_1
   + 0.1368120507062498 Z_99_9_2 + 0.2379836514233888 Z_99_9_3
   + 0.0877234148467168 Z_99_6_0 + 0.0420307560607985 Z_99_6_1
   + 0.0848529391332763 Z_99_6_2 + 0.0645936729247372 Z_99_6_3
   + 0.00875463481021399 Z_99_8_0 + 0.056713015986828 Z_99_8_1
   + 0.1368120507062498 Z_99_8_2 + 0.2379836514233888 Z_99_8_3
   + 0.1255645730057976 Z_99_5_0 + 0.0336602726272456 Z_99_5_1
   + 0.0873442639756899 Z_99_5_2 + 0.0561652196253501 Z_99_5_3
   + 0.0131009099937534 Z_99_1_0 + 0.0185392 Z_99_1_1
   + 0.1622099877516795 Z_99_1_2 + 0.034302112277784 Z_99_1_3
   + 0.0131009099937534 Z_99_2_0 + 0.0185392 Z_99_2_1
   + 0.1622099877516795 Z_99_2_2 + 0.034302112277784 Z_99_2_3
   + 0.00852284322667936 Z_439_0_0 + 0.0100988205494 Z_439_0_1
   + 0.7135213744369698 Z_439_0_2 + 0.01863194099422 Z_439_0_3
   + 0.0202661257660014 Z_439_1_0 + 0.0363815652506233 Z_439_1_1
   + 0.2531478845691453 Z_439_1_2 + 0.00153466470684003 Z_439_1_3
   + 0.5640149125341625 Z_439_2_0 + 0.0494273419474777 Z_439_2_1
   + 0.0197261429761078 Z_439_2_2 + 0.0601075732316241 Z_439_2_3
   + 0.00827299961941078 Z_473_0_0 + 0.00964430843862467 Z_473_0_1
   + 0.8039991360478226 Z_473_0_2 + 0.0204948 Z_473_0_3 + [
   0.3046714048609037 Z_99_3_0 * Z_439_2_0
   + 0.3046714048609037 Z_99_3_1 * Z_439_2_1
   + 0.3046714048609037 Z_99_3_2 * Z_439_2_2
   + 0.3046714048609037 Z_99_3_3 * Z_439_2_3
   + 0.0906411453312744 Z_99_1_0 * Z_439_2_0
   + 0.0906411453312744 Z_99_1_1 * Z_439_2_1
   + 0.0906411453312744 Z_99_1_2 * Z_439_2_2
   + 0.0906411453312744 Z_99_1_3 * Z_439_2_3 ] / 2 
Subject To
 constraint1_990: Z_99_0_0 + Z_99_0_1 + Z_99_0_2 + Z_99_0_3 <= 1
 constraint1_997: Z_99_7_0 + Z_99_7_1 + Z_99_7_2 + Z_99_7_3 <= 1
 constraint1_993: Z_99_3_0 + Z_99_3_1 + Z_99_3_2 + Z_99_3_3 <= 1
 constraint1_9910: Z_99_10_0 + Z_99_10_1 + Z_99_10_2 + Z_99_10_3 <= 1
 constraint1_994: Z_99_4_0 + Z_99_4_1 + Z_99_4_2 + Z_99_4_3 <= 1
 constraint1_999: Z_99_9_0 + Z_99_9_1 + Z_99_9_2 + Z_99_9_3 <= 1
 constraint1_996: Z_99_6_0 + Z_99_6_1 + Z_99_6_2 + Z_99_6_3 <= 1
 constraint1_998: Z_99_8_0 + Z_99_8_1 + Z_99_8_2 + Z_99_8_3 <= 1
 constraint1_995: Z_99_5_0 + Z_99_5_1 + Z_99_5_2 + Z_99_5_3 <= 1
 constraint1_991: Z_99_1_0 + Z_99_1_1 + Z_99_1_2 + Z_99_1_3 <= 1
 constraint1_992: Z_99_2_0 + Z_99_2_1 + Z_99_2_2 + Z_99_2_3 <= 1
 constraint1_4390: Z_439_0_0 + Z_439_0_1 + Z_439_0_2 + Z_439_0_3 <= 1
 constraint1_4391: Z_439_1_0 + Z_439_1_1 + Z_439_1_2 + Z_439_1_3 <= 1
 constraint1_4392: Z_439_2_0 + Z_439_2_1 + Z_439_2_2 + Z_439_2_3 <= 1
 constraint1_4730: Z_473_0_0 + Z_473_0_1 + Z_473_0_2 + Z_473_0_3 <= 1
 constraint2_990: Z_99_0_0 + Z_99_7_0 + Z_99_3_0 + Z_99_10_0 + Z_99_4_0
   + Z_99_9_0 + Z_99_6_0 + Z_99_8_0 + Z_99_5_0 + Z_99_1_0 + Z_99_2_0 <= 1
 constraint2_991: Z_99_0_1 + Z_99_7_1 + Z_99_3_1 + Z_99_10_1 + Z_99_4_1
   + Z_99_9_1 + Z_99_6_1 + Z_99_8_1 + Z_99_5_1 + Z_99_1_1 + Z_99_2_1 <= 1
 constraint2_992: Z_99_0_2 + Z_99_7_2 + Z_99_3_2 + Z_99_10_2 + Z_99_4_2
   + Z_99_9_2 + Z_99_6_2 + Z_99_8_2 + Z_99_5_2 + Z_99_1_2 + Z_99_2_2 <= 1
 constraint2_993: Z_99_0_3 + Z_99_7_3 + Z_99_3_3 + Z_99_10_3 + Z_99_4_3
   + Z_99_9_3 + Z_99_6_3 + Z_99_8_3 + Z_99_5_3 + Z_99_1_3 + Z_99_2_3 <= 1
 constraint2_4390: Z_439_0_0 + Z_439_1_0 + Z_439_2_0 <= 1
 constraint2_4391: Z_439_0_1 + Z_439_1_1 + Z_439_2_1 <= 1
 constraint2_4392: Z_439_0_2 + Z_439_1_2 + Z_439_2_2 <= 1
 constraint2_4393: Z_439_0_3 + Z_439_1_3 + Z_439_2_3 <= 1
 constraint2_4730: Z_473_0_0 <= 1
 constraint2_4731: Z_473_0_1 <= 1
 constraint2_4732: Z_473_0_2 <= 1
 constraint2_4733: Z_473_0_3 <= 1
Bounds
Binaries
 Z_99_0_0 Z_99_0_1 Z_99_0_2 Z_99_0_3 Z_99_7_0 Z_99_7_1 Z_99_7_2 Z_99_7_3
 Z_99_3_0 Z_99_3_1 Z_99_3_2 Z_99_3_3 Z_99_10_0 Z_99_10_1 Z_99_10_2
 Z_99_10_3 Z_99_4_0 Z_99_4_1 Z_99_4_2 Z_99_4_3 Z_99_9_0 Z_99_9_1 Z_99_9_2
 Z_99_9_3 Z_99_6_0 Z_99_6_1 Z_99_6_2 Z_99_6_3 Z_99_8_0 Z_99_8_1 Z_99_8_2
 Z_99_8_3 Z_99_5_0 Z_99_5_1 Z_99_5_2 Z_99_5_3 Z_99_1_0 Z_99_1_1 Z_99_1_2
 Z_99_1_3 Z_99_2_0 Z_99_2_1 Z_99_2_2 Z_99_2_3 Z_439_0_0 Z_439_0_1 Z_439_0_2
 Z_439_0_3 Z_439_1_0 Z_439_1_1 Z_439_1_2 Z_439_1_3 Z_439_2_0 Z_439_2_1
 Z_439_2_2 Z_439_2_3 Z_473_0_0 Z_473_0_1 Z_473_0_2 Z_473_0_3
End
