ilp_joint/output/conservation_ilp.mps
NAME conservation_srl_ilp
* Max problem is converted into Min one
ROWS
 N  OBJ
 L  constraint1_990
 L  constraint1_997
 L  constraint1_993
 L  constraint1_9910
 L  constraint1_994
 L  constraint1_999
 L  constraint1_996
 L  constraint1_998
 L  constraint1_995
 L  constraint1_991
 L  constraint1_992
 L  constraint1_4390
 L  constraint1_4391
 L  constraint1_4392
 L  constraint1_4730
 L  constraint2_990
 L  constraint2_991
 L  constraint2_992
 L  constraint2_993
 L  constraint2_4390
 L  constraint2_4391
 L  constraint2_4392
 L  constraint2_4393
 L  constraint2_4730
 L  constraint2_4731
 L  constraint2_4732
 L  constraint2_4733
COLUMNS
    MARKER    'MARKER'                 'INTORG'
    Z_99_0_0  OBJ       -8.5228432266793563e-03
    Z_99_0_0  constraint1_990  1
    Z_99_0_0  constraint2_990  1
    Z_99_0_1  OBJ       -1.0098820549400034e-02
    Z_99_0_1  constraint1_990  1
    Z_99_0_1  constraint2_991  1
    Z_99_0_2  OBJ       -7.0064003522915352e-01
    Z_99_0_2  constraint1_990  1
    Z_99_0_2  constraint2_992  1
    Z_99_0_3  OBJ       -1.4041099013044525e-02
    Z_99_0_3  constraint1_990  1
    Z_99_0_3  constraint2_993  1
    Z_99_7_0  OBJ       -7.8779885669717081e-02
    Z_99_7_0  constraint1_997  1
    Z_99_7_0  constraint2_990  1
    Z_99_7_1  OBJ       -3.8172091841598803e-02
    Z_99_7_1  constraint1_997  1
    Z_99_7_1  constraint2_991  1
    Z_99_7_2  OBJ       -9.0025487525343145e-02
    Z_99_7_2  constraint1_997  1
    Z_99_7_2  constraint2_992  1
    Z_99_7_3  OBJ       -6.9195791404926738e-02
    Z_99_7_3  constraint1_997  1
    Z_99_7_3  constraint2_993  1
    Z_99_3_0  OBJ       -6.5566070790902287e-01
    Z_99_3_0  constraint1_993  1
    Z_99_3_0  constraint2_990  1
    Z_99_3_1  OBJ       -3.8581934826112475e-02
    Z_99_3_1  constraint1_993  1
    Z_99_3_1  constraint2_991  1
    Z_99_3_2  OBJ       -1.5530762708150158e-02
    Z_99_3_2  constraint1_993  1
    Z_99_3_2  constraint2_992  1
    Z_99_3_3  OBJ       -5.0511970212398026e-02
    Z_99_3_3  constraint1_993  1
    Z_99_3_3  constraint2_993  1
    Z_99_10_0  OBJ       -1.0689703023984080e-01
    Z_99_10_0  constraint1_9910  1
    Z_99_10_0  constraint2_990  1
    Z_99_10_1  OBJ       -1.1378002354731190e-01
    Z_99_10_1  constraint1_9910  1
    Z_99_10_1  constraint2_991  1
    Z_99_10_2  OBJ       -1.7149774287294417e-02
    Z_99_10_2  constraint1_9910  1
    Z_99_10_2  constraint2_992  1
    Z_99_10_3  OBJ       -1.1086415371177044e-01
    Z_99_10_3  constraint1_9910  1
    Z_99_10_3  constraint2_993  1
    Z_99_4_0  OBJ       -1.3100909993753440e-02
    Z_99_4_0  constraint1_994  1
    Z_99_4_0  constraint2_990  1
    Z_99_4_1  OBJ       -1.8539200074312069e-02
    Z_99_4_1  constraint1_994  1
    Z_99_4_1  constraint2_991  1
    Z_99_4_2  OBJ       -1.6220998775167947e-01
    Z_99_4_2  constraint1_994  1
    Z_99_4_2  constraint2_992  1
    Z_99_4_3  OBJ       -3.4302112277784041e-02
    Z_99_4_3  constraint1_994  1
    Z_99_4_3  constraint2_993  1
    Z_99_9_0  OBJ       -8.7546348102139904e-03
    Z_99_9_0  constraint1_999  1
    Z_99_9_0  constraint2_990  1
    Z_99_9_1  OBJ       -5.6713015986828000e-02
    Z_99_9_1  constraint1_999  1
    Z_99_9_1  constraint2_991  1
    Z_99_9_2  OBJ       -1.3681205070624980e-01
    Z_99_9_2  constraint1_999  1
    Z_99_9_2  constraint2_992  1
    Z_99_9_3  OBJ       -2.3798365142338876e-01
    Z_99_9_3  constraint1_999  1
    Z_99_9_3  constraint2_993  1
    Z_99_6_0  OBJ       -8.7723414846716835e-02
    Z_99_6_0  constraint1_996  1
    Z_99_6_0  constraint2_990  1
    Z_99_6_1  OBJ       -4.2030756060798535e-02
    Z_99_6_1  constraint1_996  1
    Z_99_6_1  constraint2_991  1
    Z_99_6_2  OBJ       -8.4852939133276281e-02
    Z_99_6_2  constraint1_996  1
    Z_99_6_2  constraint2_992  1
    Z_99_6_3  OBJ       -6.4593672924737208e-02
    Z_99_6_3  constraint1_996  1
    Z_99_6_3  constraint2_993  1
    Z_99_8_0  OBJ       -8.7546348102139904e-03
    Z_99_8_0  constraint1_998  1
    Z_99_8_0  constraint2_990  1
    Z_99_8_1  OBJ       -5.6713015986828000e-02
    Z_99_8_1  constraint1_998  1
    Z_99_8_1  constraint2_991  1
    Z_99_8_2  OBJ       -1.3681205070624980e-01
    Z_99_8_2  constraint1_998  1
    Z_99_8_2  constraint2_992  1
    Z_99_8_3  OBJ       -2.3798365142338876e-01
    Z_99_8_3  constraint1_998  1
    Z_99_8_3  constraint2_993  1
    Z_99_5_0  OBJ       -1.2556457300579757e-01
    Z_99_5_0  constraint1_995  1
    Z_99_5_0  constraint2_990  1
    Z_99_5_1  OBJ       -3.3660272627245573e-02
    Z_99_5_1  constraint1_995  1
    Z_99_5_1  constraint2_991  1
    Z_99_5_2  OBJ       -8.7344263975689881e-02
    Z_99_5_2  constraint1_995  1
    Z_99_5_2  constraint2_992  1
    Z_99_5_3  OBJ       -5.6165219625350142e-02
    Z_99_5_3  constraint1_995  1
    Z_99_5_3  constraint2_993  1
    Z_99_1_0  OBJ       -1.3100909993753440e-02
    Z_99_1_0  constraint1_991  1
    Z_99_1_0  constraint2_990  1
    Z_99_1_1  OBJ       -1.8539200074312069e-02
    Z_99_1_1  constraint1_991  1
    Z_99_1_1  constraint2_991  1
    Z_99_1_2  OBJ       -1.6220998775167947e-01
    Z_99_1_2  constraint1_991  1
    Z_99_1_2  constraint2_992  1
    Z_99_1_3  OBJ       -3.4302112277784041e-02
    Z_99_1_3  constraint1_991  1
    Z_99_1_3  constraint2_993  1
    Z_99_2_0  OBJ       -1.3100909993753440e-02
    Z_99_2_0  constraint1_992  1
    Z_99_2_0  constraint2_990  1
    Z_99_2_1  OBJ       -1.8539200074312069e-02
    Z_99_2_1  constraint1_992  1
    Z_99_2_1  constraint2_991  1
    Z_99_2_2  OBJ       -1.6220998775167947e-01
    Z_99_2_2  constraint1_992  1
    Z_99_2_2  constraint2_992  1
    Z_99_2_3  OBJ       -3.4302112277784041e-02
    Z_99_2_3  constraint1_992  1
    Z_99_2_3  constraint2_993  1
    Z_439_0_0  OBJ       -8.5228432266793563e-03
    Z_439_0_0  constraint1_4390  1
    Z_439_0_0  constraint2_4390  1
    Z_439_0_1  OBJ       -1.0098820549400034e-02
    Z_439_0_1  constraint1_4390  1
    Z_439_0_1  constraint2_4391  1
    Z_439_0_2  OBJ       -7.1352137443696984e-01
    Z_439_0_2  constraint1_4390  1
    Z_439_0_2  constraint2_4392  1
    Z_439_0_3  OBJ       -1.8631940994220050e-02
    Z_439_0_3  constraint1_4390  1
    Z_439_0_3  constraint2_4393  1
    Z_439_1_0  OBJ       -2.0266125766001387e-02
    Z_439_1_0  constraint1_4391  1
    Z_439_1_0  constraint2_4390  1
    Z_439_1_1  OBJ       -3.6381565250623339e-02
    Z_439_1_1  constraint1_4391  1
    Z_439_1_1  constraint2_4391  1
    Z_439_1_2  OBJ       -2.5314788456914528e-01
    Z_439_1_2  constraint1_4391  1
    Z_439_1_2  constraint2_4392  1
    Z_439_1_3  OBJ       -1.5346647068400256e-03
    Z_439_1_3  constraint1_4391  1
    Z_439_1_3  constraint2_4393  1
    Z_439_2_0  OBJ       -5.6401491253416247e-01
    Z_439_2_0  constraint1_4392  1
    Z_439_2_0  constraint2_4390  1
    Z_439_2_1  OBJ       -4.9427341947477700e-02
    Z_439_2_1  constraint1_4392  1
    Z_439_2_1  constraint2_4391  1
    Z_439_2_2  OBJ       -1.9726142976107787e-02
    Z_439_2_2  constraint1_4392  1
    Z_439_2_2  constraint2_4392  1
    Z_439_2_3  OBJ       -6.0107573231624148e-02
    Z_439_2_3  constraint1_4392  1
    Z_439_2_3  constraint2_4393  1
    Z_473_0_0  OBJ       -8.2729996194107810e-03
    Z_473_0_0  constraint1_4730  1
    Z_473_0_0  constraint2_4730  1
    Z_473_0_1  OBJ       -9.6443084386246720e-03
    Z_473_0_1  constraint1_4730  1
    Z_473_0_1  constraint2_4731  1
    Z_473_0_2  OBJ       -8.0399913604782258e-01
    Z_473_0_2  constraint1_4730  1
    Z_473_0_2  constraint2_4732  1
    Z_473_0_3  OBJ       -2.0494799945655451e-02
    Z_473_0_3  constraint1_4730  1
    Z_473_0_3  constraint2_4733  1
    MARKER    'MARKER'                 'INTEND'
RHS
    RHS1      constraint1_990  1
    RHS1      constraint1_997  1
    RHS1      constraint1_993  1
    RHS1      constraint1_9910  1
    RHS1      constraint1_994  1
    RHS1      constraint1_999  1
    RHS1      constraint1_996  1
    RHS1      constraint1_998  1
    RHS1      constraint1_995  1
    RHS1      constraint1_991  1
    RHS1      constraint1_992  1
    RHS1      constraint1_4390  1
    RHS1      constraint1_4391  1
    RHS1      constraint1_4392  1
    RHS1      constraint1_4730  1
    RHS1      constraint2_990  1
    RHS1      constraint2_991  1
    RHS1      constraint2_992  1
    RHS1      constraint2_993  1
    RHS1      constraint2_4390  1
    RHS1      constraint2_4391  1
    RHS1      constraint2_4392  1
    RHS1      constraint2_4393  1
    RHS1      constraint2_4730  1
    RHS1      constraint2_4731  1
    RHS1      constraint2_4732  1
    RHS1      constraint2_4733  1
BOUNDS
 UP BND1      Z_99_0_0  1
 UP BND1      Z_99_0_1  1
 UP BND1      Z_99_0_2  1
 UP BND1      Z_99_0_3  1
 UP BND1      Z_99_7_0  1
 UP BND1      Z_99_7_1  1
 UP BND1      Z_99_7_2  1
 UP BND1      Z_99_7_3  1
 UP BND1      Z_99_3_0  1
 UP BND1      Z_99_3_1  1
 UP BND1      Z_99_3_2  1
 UP BND1      Z_99_3_3  1
 UP BND1      Z_99_10_0  1
 UP BND1      Z_99_10_1  1
 UP BND1      Z_99_10_2  1
 UP BND1      Z_99_10_3  1
 UP BND1      Z_99_4_0  1
 UP BND1      Z_99_4_1  1
 UP BND1      Z_99_4_2  1
 UP BND1      Z_99_4_3  1
 UP BND1      Z_99_9_0  1
 UP BND1      Z_99_9_1  1
 UP BND1      Z_99_9_2  1
 UP BND1      Z_99_9_3  1
 UP BND1      Z_99_6_0  1
 UP BND1      Z_99_6_1  1
 UP BND1      Z_99_6_2  1
 UP BND1      Z_99_6_3  1
 UP BND1      Z_99_8_0  1
 UP BND1      Z_99_8_1  1
 UP BND1      Z_99_8_2  1
 UP BND1      Z_99_8_3  1
 UP BND1      Z_99_5_0  1
 UP BND1      Z_99_5_1  1
 UP BND1      Z_99_5_2  1
 UP BND1      Z_99_5_3  1
 UP BND1      Z_99_1_0  1
 UP BND1      Z_99_1_1  1
 UP BND1      Z_99_1_2  1
 UP BND1      Z_99_1_3  1
 UP BND1      Z_99_2_0  1
 UP BND1      Z_99_2_1  1
 UP BND1      Z_99_2_2  1
 UP BND1      Z_99_2_3  1
 UP BND1      Z_439_0_0  1
 UP BND1      Z_439_0_1  1
 UP BND1      Z_439_0_2  1
 UP BND1      Z_439_0_3  1
 UP BND1      Z_439_1_0  1
 UP BND1      Z_439_1_1  1
 UP BND1      Z_439_1_2  1
 UP BND1      Z_439_1_3  1
 UP BND1      Z_439_2_0  1
 UP BND1      Z_439_2_1  1
 UP BND1      Z_439_2_2  1
 UP BND1      Z_439_2_3  1
 UP BND1      Z_473_0_0  1
 UP BND1      Z_473_0_1  1
 UP BND1      Z_473_0_2  1
 UP BND1      Z_473_0_3  1
QUADOBJ
    Z_99_3_0  Z_439_2_0  -1.5233570243045183e-01
    Z_99_3_1  Z_439_2_1  -1.5233570243045183e-01
    Z_99_3_2  Z_439_2_2  -1.5233570243045183e-01
    Z_99_3_3  Z_439_2_3  -1.5233570243045183e-01
    Z_99_1_0  Z_439_2_0  -4.5320572665637195e-02
    Z_99_1_1  Z_439_2_1  -4.5320572665637195e-02
    Z_99_1_2  Z_439_2_2  -4.5320572665637195e-02
    Z_99_1_3  Z_439_2_3  -4.5320572665637195e-02
ENDATA
