ilp_joint/output/conservation_ilp.sol
# Solution for model conservation_srl_ilp
# Objective value = 8.4519702535015162e-01
Z_226_0_0 0
Z_226_0_1 0
Z_226_0_2 1
Z_226_0_3 0
Z_226_0_4 0
